NAME : portcgen-29-32
COMMENT : portcgen N=29, seed=32
TYPE : TSP
DIMENSION : 29
EDGE_WEIGHT_TYPE : EUC_2D
NODE_COORD_SECTION
1 -113139 -349547
2 -12625 -30508
3 -79504 227387
4 186895 -118901
5 -60655 -159784
6 -18966 -158539
7 -58726 140211
8 -5908 59326
9 28213 182004
10 -307835 -47818
11 -245589 43003
12 438490 -184584
13 -256864 28106
14 74784 -106392
15 -92126 -156128
16 -201641 -142318
17 -100937 -109959
18 207001 -104415
19 92258 252128
20 8235 39020
21 37911 -63402
22 138808 29656
23 -63404 49479
24 -48486 9298
25 171048 147009
26 288563 211166
27 86945 -100961
28 -263011 66381
29 194309 23717
